(set-logic QF_S)
(declare-fun var_0xINPUT_170080 () String)
(assert (and (= (len var_0xINPUT_170080) 0) (= (len var_0xINPUT_170080) 0) (not (= var_0xINPUT_170080 "qXdHDo7IZR"))))
(check-sat var_0xINPUT_170080)